; benchmark generated from python API
(set-info :status unknown)
(declare-datatypes ((RealState 0)) (((RMk1 (rval1 Real)) (RMk2 (rval2 Real)))))
 (declare-fun ep () Real)
(declare-fun V () Real)
(declare-fun v2uscore1dollarskuscore8 () Real)
(declare-fun v1uscore1dollarskuscore8 () Real)
(declare-fun t8uscore0 () Real)
(declare-fun x2uscore1dollarskuscore7 () Real)
(declare-fun xI2 () Real)
(declare-fun A () Real)
(declare-fun v2 () Real)
(declare-fun v1 () Real)
(declare-fun B () Real)
(declare-fun x2 () Real)
(declare-fun I2 () Real)
(declare-fun x1 () Real)
(declare-fun xI1 () Real)
(declare-fun I1 () Real)
(declare-fun I1uscore1dollarskuscore8 () Real)
(declare-fun I2uscore1dollarskuscore8 () Real)
(declare-fun x1uscore1dollarskuscore8 () Real)
(assert
 (let (($x117 (exists ((ts8uscore0_st RealState) (val!216 Real) )(let (($x41 (= 1.0 2.0)))
 (let (($x32 (or $x41 $x41)))
 (let (($x133 (>= v2uscore1dollarskuscore8 0.0)))
 (let (($x65 (>= v1uscore1dollarskuscore8 0.0)))
 (let (($x159 (and (and (and $x65 (<= v1uscore1dollarskuscore8 V)) $x133) (<= v2uscore1dollarskuscore8 V))))
 (let (($x100 (=> (and (<= 0.0 (rval2 ts8uscore0_st)) (<= (rval2 ts8uscore0_st) t8uscore0)) (and $x159 (<= (+ (rval2 ts8uscore0_st) 0.0) ep)))))
 (let (($x45 (>= t8uscore0 0.0)))
 (let (($x155 (= xI2 x2uscore1dollarskuscore7)))
 (let (($x16 (>= A 0.0)))
 (let (($x152 (>= v2 0.0)))
 (let (($x189 (>= v1 0.0)))
 (let (($x229 (= I2 2.0)))
 (let (($x187 (= I1 2.0)))
 (let (($x75 (= I1uscore1dollarskuscore8 2.0)))
 (let (($x35 (= I1uscore1dollarskuscore8 0.0)))
 (let (($x185 (= I2uscore1dollarskuscore8 0.0)))
 (let (($x37 (= xI1 x1uscore1dollarskuscore8)))
 (let (($x136 (= v1uscore1dollarskuscore8 V)))
 (let (($x208 (= v2uscore1dollarskuscore8 0.0)))
 (let (($x78 (and (and (and (and (and (and $x208 $x136) $x37) $x185) $x35) $x75) $x187)))
 (let (($x36 (and (and (and (and $x78 (< xI1 x1)) $x229) (< xI2 x2)) (> B 0.0))))
 (let (($x42 (and (and (and (and (and $x36 $x189) (<= v1 V)) $x152) (<= v2 V)) $x16)))
 (let (($x178 (and (and $x42 (> V 0.0)) (> ep 0.0))))
 (let (($x94 (not (= ts8uscore0_st (RMk1 val!216)))))
 (and $x94 (=> $x178 (or $x155 (=> (and $x45 $x100) $x32)))))))))))))))))))))))))))))
 ))
 (not $x117)))
(check-sat)
